NAME: gr17
TYPE: TSP
COMMENT: 17-city problem (Groetschel)
DIMENSION: 8
EDGE_WEIGHT_TYPE: EXPLICIT
EDGE_WEIGHT_FORMAT: LOWER_DIAG_ROW 
EDGE_WEIGHT_SECTION
0 2 0 0 3 0 0 0
2 0 3 0 2 2 0 0
0 3 0 4 0 0 2 0
0 0 4 0 0 0 2 2
3 2 0 0 0 3 0 0
0 2 0 0 3 0 1 0
0 0 2 2 0 1 0 3
0 0 0 2 0 0 3 0
EOF
